; SPDX-License-Identifier: MPL-2.0
; Copyright (c) 2026 The RIINA Authors.
; Auto-generated from 02_FORMAL/coq/domains/VerifiedProtocols.v (37 validations)
; Generated by scripts/generate-full-stack.py
;
; Translation Validation for VerifiedProtocols
; Layer 9: Verifies compiler backend preserves formal semantics.
; Each assertion checks source IR ≡ target code for a proven property.

(set-logic QF_LIA)
(set-option :produce-models true)

; IR node representation
(declare-sort IRNode 0)
(declare-sort TargetNode 0)

; valid_keypair: source semantics (matches Coq)
(declare-fun source_valid_keypair () Bool)
(declare-fun target_valid_keypair () Bool)
(assert (= source_valid_keypair target_valid_keypair))

; x25519: source semantics (matches Coq)
(declare-fun source_x25519 () Bool)
(declare-fun target_x25519 () Bool)
(assert (= source_x25519 target_x25519))

; x25519_commutes: source semantics (matches Coq)
(declare-fun source_x25519_commutes () Bool)
(declare-fun target_x25519_commutes () Bool)
(assert (= source_x25519_commutes target_x25519_commutes))

; aead_correct: source semantics (matches Coq)
(declare-fun source_aead_correct () Bool)
(declare-fun target_aead_correct () Bool)
(assert (= source_aead_correct target_aead_correct))

; initial_tls13_state: source semantics (matches Coq)
(declare-fun source_initial_tls13_state () Bool)
(declare-fun target_initial_tls13_state () Bool)
(assert (= source_initial_tls13_state target_initial_tls13_state))

; tls13_handshake_complete: source semantics (matches Coq)
(declare-fun source_tls13_handshake_complete () Bool)
(declare-fun target_tls13_handshake_complete () Bool)
(assert (= source_tls13_handshake_complete target_tls13_handshake_complete))

; session_established_before: source semantics (matches Coq)
(declare-fun source_session_established_before () Bool)
(declare-fun target_session_established_before () Bool)
(assert (= source_session_established_before target_session_established_before))

; noise_pattern_initiator_static: source semantics (matches Coq)
(declare-fun source_noise_pattern_initiator_static () Bool)
(declare-fun target_noise_pattern_initiator_static () Bool)
(assert (= source_noise_pattern_initiator_static target_noise_pattern_initiator_static))

; noise_pattern_responder_static: source semantics (matches Coq)
(declare-fun source_noise_pattern_responder_static () Bool)
(declare-fun target_noise_pattern_responder_static () Bool)
(assert (= source_noise_pattern_responder_static target_noise_pattern_responder_static))

; noise_pattern_identity_hiding_initiator: source semantics (matches Coq)
(declare-fun source_noise_pattern_identity_hiding_initiator () Bool)
(declare-fun target_noise_pattern_identity_hiding_initiator () Bool)
(assert (= source_noise_pattern_identity_hiding_initiator target_noise_pattern_identity_hiding_initiator))

; init_noise_state: source semantics (matches Coq)
(declare-fun source_init_noise_state () Bool)
(declare-fun target_init_noise_state () Bool)
(assert (= source_init_noise_state target_init_noise_state))

; noise_mix_key: source semantics (matches Coq)
(declare-fun source_noise_mix_key () Bool)
(declare-fun target_noise_mix_key () Bool)
(assert (= source_noise_mix_key target_noise_mix_key))

; noise_mix_hash: source semantics (matches Coq)
(declare-fun source_noise_mix_hash () Bool)
(declare-fun target_noise_mix_hash () Bool)
(assert (= source_noise_mix_hash target_noise_mix_hash))

; noise_handshake_complete: source semantics (matches Coq)
(declare-fun source_noise_handshake_complete () Bool)
(declare-fun target_noise_handshake_complete () Bool)
(assert (= source_noise_handshake_complete target_noise_handshake_complete))

; x3dh_initiator: source semantics (matches Coq)
(declare-fun source_x3dh_initiator () Bool)
(declare-fun target_x3dh_initiator () Bool)
(assert (= source_x3dh_initiator target_x3dh_initiator))

; signal_dh_ratchet: source semantics (matches Coq)
(declare-fun source_signal_dh_ratchet () Bool)
(declare-fun target_signal_dh_ratchet () Bool)
(assert (= source_signal_dh_ratchet target_signal_dh_ratchet))

; confidentiality: source semantics (matches Coq)
(declare-fun source_confidentiality () Bool)
(declare-fun target_confidentiality () Bool)
(assert (= source_confidentiality target_confidentiality))

; strong_confidentiality: source semantics (matches Coq)
(declare-fun source_strong_confidentiality () Bool)
(declare-fun target_strong_confidentiality () Bool)
(assert (= source_strong_confidentiality target_strong_confidentiality))

; authentication: source semantics (matches Coq)
(declare-fun source_authentication () Bool)
(declare-fun target_authentication () Bool)
(assert (= source_authentication target_authentication))

; forward_secrecy: source semantics (matches Coq)
(declare-fun source_forward_secrecy () Bool)
(declare-fun target_forward_secrecy () Bool)
(assert (= source_forward_secrecy target_forward_secrecy))

; implements: source semantics (matches Coq)
(declare-fun source_implements () Bool)
(declare-fun target_implements () Bool)
(assert (= source_implements target_implements))

; valid_trace: source semantics (matches Coq)
(declare-fun source_valid_trace () Bool)
(declare-fun target_valid_trace () Bool)
(assert (= source_valid_trace target_valid_trace))

; satisfies_spec: source semantics (matches Coq)
(declare-fun source_satisfies_spec () Bool)
(declare-fun target_satisfies_spec () Bool)
(assert (= source_satisfies_spec target_satisfies_spec))

; authenticated: source semantics (matches Coq)
(declare-fun source_authenticated () Bool)
(declare-fun target_authenticated () Bool)
(assert (= source_authenticated target_authenticated))

; in_path: source semantics (matches Coq)
(declare-fun source_in_path () Bool)
(declare-fun target_in_path () Bool)
(assert (= source_in_path target_in_path))

; fresh_nonce: source semantics (matches Coq)
(declare-fun source_fresh_nonce () Bool)
(declare-fun target_fresh_nonce () Bool)
(assert (= source_fresh_nonce target_fresh_nonce))

; prevents_replay: source semantics (matches Coq)
(declare-fun source_prevents_replay () Bool)
(declare-fun target_prevents_replay () Bool)
(assert (= source_prevents_replay target_prevents_replay))

; prevents_reflection: source semantics (matches Coq)
(declare-fun source_prevents_reflection () Bool)
(declare-fun target_prevents_reflection () Bool)
(assert (= source_prevents_reflection target_prevents_reflection))

; constant_time_op: source semantics (matches Coq)
(declare-fun source_constant_time_op () Bool)
(declare-fun target_constant_time_op () Bool)
(assert (= source_constant_time_op target_constant_time_op))

; all_theorems_proven: source semantics (matches Coq)
(declare-fun source_all_theorems_proven () Bool)
(declare-fun target_all_theorems_proven () Bool)
(assert (= source_all_theorems_proven target_all_theorems_proven))

; hkdf_deterministic: translation preserves property (matches Coq: Lemma)
(declare-fun source_hkdf_deterministic () Bool)
(declare-fun target_hkdf_deterministic () Bool)
(assert (= source_hkdf_deterministic target_hkdf_deterministic))

; AH_001_01_protocol_specification: translation preserves property (matches Coq: Theorem)
(declare-fun source_AH_001_01_protocol_specification () Bool)
(declare-fun target_AH_001_01_protocol_specification () Bool)
(assert (= source_AH_001_01_protocol_specification target_AH_001_01_protocol_specification))

; AH_001_02_implementation_matches_spec: translation preserves property (matches Coq: Theorem)
(declare-fun source_AH_001_02_implementation_matches_spec () Bool)
(declare-fun target_AH_001_02_implementation_matches_spec () Bool)
(assert (= source_AH_001_02_implementation_matches_spec target_AH_001_02_implementation_matches_spec))

; AH_001_03_trace_valid: translation preserves property (matches Coq: Theorem)
(declare-fun source_AH_001_03_trace_valid () Bool)
(declare-fun target_AH_001_03_trace_valid () Bool)
(assert (= source_AH_001_03_trace_valid target_AH_001_03_trace_valid))

; AH_001_04_security_goals_satisfied: translation preserves property (matches Coq: Theorem)
(declare-fun source_AH_001_04_security_goals_satisfied () Bool)
(declare-fun target_AH_001_04_security_goals_satisfied () Bool)
(assert (= source_AH_001_04_security_goals_satisfied target_AH_001_04_security_goals_satisfied))

; AH_001_05_protocol_composition: translation preserves property (matches Coq: Theorem)
(declare-fun source_AH_001_05_protocol_composition () Bool)
(declare-fun target_AH_001_05_protocol_composition () Bool)
(assert (= source_AH_001_05_protocol_composition target_AH_001_05_protocol_composition))

; AH_001_06_proverif_verified: translation preserves property (matches Coq: Theorem)
(declare-fun source_AH_001_06_proverif_verified () Bool)
(declare-fun target_AH_001_06_proverif_verified () Bool)
(assert (= source_AH_001_06_proverif_verified target_AH_001_06_proverif_verified))

; AH_001_07_protocol_deterministic: translation preserves property (matches Coq: Theorem)
(declare-fun source_AH_001_07_protocol_deterministic () Bool)
(declare-fun target_AH_001_07_protocol_deterministic () Bool)
(assert (= source_AH_001_07_protocol_deterministic target_AH_001_07_protocol_deterministic))

; AH_001_08_tls13_confidentiality: translation preserves property (matches Coq: Theorem)
(declare-fun source_AH_001_08_tls13_confidentiality () Bool)
(declare-fun target_AH_001_08_tls13_confidentiality () Bool)
(assert (= source_AH_001_08_tls13_confidentiality target_AH_001_08_tls13_confidentiality))

; AH_001_09_tls13_authentication: translation preserves property (matches Coq: Theorem)
(declare-fun source_AH_001_09_tls13_authentication () Bool)
(declare-fun target_AH_001_09_tls13_authentication () Bool)
(assert (= source_AH_001_09_tls13_authentication target_AH_001_09_tls13_authentication))

; AH_001_10_tls13_forward_secrecy: translation preserves property (matches Coq: Theorem)
(declare-fun source_AH_001_10_tls13_forward_secrecy () Bool)
(declare-fun target_AH_001_10_tls13_forward_secrecy () Bool)
(assert (= source_AH_001_10_tls13_forward_secrecy target_AH_001_10_tls13_forward_secrecy))

; AH_001_11_tls13_handshake_correct: translation preserves property (matches Coq: Theorem)
(declare-fun source_AH_001_11_tls13_handshake_correct () Bool)
(declare-fun target_AH_001_11_tls13_handshake_correct () Bool)
(assert (= source_AH_001_11_tls13_handshake_correct target_AH_001_11_tls13_handshake_correct))

; AH_001_12_tls13_key_derivation: translation preserves property (matches Coq: Theorem)
(declare-fun source_AH_001_12_tls13_key_derivation () Bool)
(declare-fun target_AH_001_12_tls13_key_derivation () Bool)
(assert (= source_AH_001_12_tls13_key_derivation target_AH_001_12_tls13_key_derivation))

; AH_001_13_tls13_certificate_verify: translation preserves property (matches Coq: Theorem)
(declare-fun source_AH_001_13_tls13_certificate_verify () Bool)
(declare-fun target_AH_001_13_tls13_certificate_verify () Bool)
(assert (= source_AH_001_13_tls13_certificate_verify target_AH_001_13_tls13_certificate_verify))

; AH_001_14_tls13_finished_verify: translation preserves property (matches Coq: Theorem)
(declare-fun source_AH_001_14_tls13_finished_verify () Bool)
(declare-fun target_AH_001_14_tls13_finished_verify () Bool)
(assert (= source_AH_001_14_tls13_finished_verify target_AH_001_14_tls13_finished_verify))

; AH_001_15_tls13_record_layer: translation preserves property (matches Coq: Theorem)
(declare-fun source_AH_001_15_tls13_record_layer () Bool)
(declare-fun target_AH_001_15_tls13_record_layer () Bool)
(assert (= source_AH_001_15_tls13_record_layer target_AH_001_15_tls13_record_layer))

; AH_001_16_tls13_no_downgrade: translation preserves property (matches Coq: Theorem)
(declare-fun source_AH_001_16_tls13_no_downgrade () Bool)
(declare-fun target_AH_001_16_tls13_no_downgrade () Bool)
(assert (= source_AH_001_16_tls13_no_downgrade target_AH_001_16_tls13_no_downgrade))

; AH_001_17_noise_pattern_correct: translation preserves property (matches Coq: Theorem)
(declare-fun source_AH_001_17_noise_pattern_correct () Bool)
(declare-fun target_AH_001_17_noise_pattern_correct () Bool)
(assert (= source_AH_001_17_noise_pattern_correct target_AH_001_17_noise_pattern_correct))

; AH_001_18_noise_handshake_correct: translation preserves property (matches Coq: Theorem)
(declare-fun source_AH_001_18_noise_handshake_correct () Bool)
(declare-fun target_AH_001_18_noise_handshake_correct () Bool)
(assert (= source_AH_001_18_noise_handshake_correct target_AH_001_18_noise_handshake_correct))

; AH_001_19_noise_key_confirmation: translation preserves property (matches Coq: Theorem)
(declare-fun source_AH_001_19_noise_key_confirmation () Bool)
(declare-fun target_AH_001_19_noise_key_confirmation () Bool)
(assert (= source_AH_001_19_noise_key_confirmation target_AH_001_19_noise_key_confirmation))

; AH_001_20_noise_identity_hiding: translation preserves property (matches Coq: Theorem)
(declare-fun source_AH_001_20_noise_identity_hiding () Bool)
(declare-fun target_AH_001_20_noise_identity_hiding () Bool)
(assert (= source_AH_001_20_noise_identity_hiding target_AH_001_20_noise_identity_hiding))

; AH_001_21_noise_payload_encrypt: translation preserves property (matches Coq: Theorem)
(declare-fun source_AH_001_21_noise_payload_encrypt () Bool)
(declare-fun target_AH_001_21_noise_payload_encrypt () Bool)
(assert (= source_AH_001_21_noise_payload_encrypt target_AH_001_21_noise_payload_encrypt))

; AH_001_22_noise_rekey_correct: translation preserves property (matches Coq: Theorem)
(declare-fun source_AH_001_22_noise_rekey_correct () Bool)
(declare-fun target_AH_001_22_noise_rekey_correct () Bool)
(assert (= source_AH_001_22_noise_rekey_correct target_AH_001_22_noise_rekey_correct))

; AH_001_23_noise_composition: translation preserves property (matches Coq: Theorem)
(declare-fun source_AH_001_23_noise_composition () Bool)
(declare-fun target_AH_001_23_noise_composition () Bool)
(assert (= source_AH_001_23_noise_composition target_AH_001_23_noise_composition))

; AH_001_24_signal_double_ratchet: translation preserves property (matches Coq: Theorem)
(declare-fun source_AH_001_24_signal_double_ratchet () Bool)
(declare-fun target_AH_001_24_signal_double_ratchet () Bool)
(assert (= source_AH_001_24_signal_double_ratchet target_AH_001_24_signal_double_ratchet))

; AH_001_25_signal_forward_secrecy: translation preserves property (matches Coq: Theorem)
(declare-fun source_AH_001_25_signal_forward_secrecy () Bool)
(declare-fun target_AH_001_25_signal_forward_secrecy () Bool)
(assert (= source_AH_001_25_signal_forward_secrecy target_AH_001_25_signal_forward_secrecy))

; AH_001_26_signal_break_in_recovery: translation preserves property (matches Coq: Theorem)
(declare-fun source_AH_001_26_signal_break_in_recovery () Bool)
(declare-fun target_AH_001_26_signal_break_in_recovery () Bool)
(assert (= source_AH_001_26_signal_break_in_recovery target_AH_001_26_signal_break_in_recovery))

; AH_001_27_signal_out_of_order: translation preserves property (matches Coq: Theorem)
(declare-fun source_AH_001_27_signal_out_of_order () Bool)
(declare-fun target_AH_001_27_signal_out_of_order () Bool)
(assert (= source_AH_001_27_signal_out_of_order target_AH_001_27_signal_out_of_order))

; AH_001_28_signal_x3dh_correct: translation preserves property (matches Coq: Theorem)
(declare-fun source_AH_001_28_signal_x3dh_correct () Bool)
(declare-fun target_AH_001_28_signal_x3dh_correct () Bool)
(assert (= source_AH_001_28_signal_x3dh_correct target_AH_001_28_signal_x3dh_correct))

; AH_001_29_signal_session_correct: translation preserves property (matches Coq: Theorem)
(declare-fun source_AH_001_29_signal_session_correct () Bool)
(declare-fun target_AH_001_29_signal_session_correct () Bool)
(assert (= source_AH_001_29_signal_session_correct target_AH_001_29_signal_session_correct))

; AH_001_30_no_replay: translation preserves property (matches Coq: Theorem)
(declare-fun source_AH_001_30_no_replay () Bool)
(declare-fun target_AH_001_30_no_replay () Bool)
(assert (= source_AH_001_30_no_replay target_AH_001_30_no_replay))

; AH_001_31_no_reflection: translation preserves property (matches Coq: Theorem)
(declare-fun source_AH_001_31_no_reflection () Bool)
(declare-fun target_AH_001_31_no_reflection () Bool)
(assert (= source_AH_001_31_no_reflection target_AH_001_31_no_reflection))

; AH_001_32_no_mitm: translation preserves property (matches Coq: Theorem)
(declare-fun source_AH_001_32_no_mitm () Bool)
(declare-fun target_AH_001_32_no_mitm () Bool)
(assert (= source_AH_001_32_no_mitm target_AH_001_32_no_mitm))

; AH_001_33_key_material_secret: translation preserves property (matches Coq: Theorem)
(declare-fun source_AH_001_33_key_material_secret () Bool)
(declare-fun target_AH_001_33_key_material_secret () Bool)
(assert (= source_AH_001_33_key_material_secret target_AH_001_33_key_material_secret))

; AH_001_34_randomness_fresh: translation preserves property (matches Coq: Theorem)
(declare-fun source_AH_001_34_randomness_fresh () Bool)
(declare-fun target_AH_001_34_randomness_fresh () Bool)
(assert (= source_AH_001_34_randomness_fresh target_AH_001_34_randomness_fresh))

; AH_001_35_timing_resistant: translation preserves property (matches Coq: Theorem)
(declare-fun source_AH_001_35_timing_resistant () Bool)
(declare-fun target_AH_001_35_timing_resistant () Bool)
(assert (= source_AH_001_35_timing_resistant target_AH_001_35_timing_resistant))

; verification_complete: translation preserves property (matches Coq: Theorem)
(declare-fun source_verification_complete () Bool)
(declare-fun target_verification_complete () Bool)
(assert (= source_verification_complete target_verification_complete))

; Verify all translation validations are satisfiable
(check-sat)
(exit)
